problems/csplib-prob056/sonet-models/noch/O2/lingeling/model_4_1-s3ring14-solution000001.solution
language Essence 1.3

letting network be
        mset({}, {1, 2, 4, 9, 13}, {1, 4, 6, 7, 12}, {2, 3, 8, 10, 11}, {3, 5, 6, 7, 10}, {5, 8, 9, 11}, {5, 8, 9, 11})
$ Here is a simple "visualisation" for the value above.
$ 
$  1  2  4  9 13
$  1  4  6  7 12
$  2  3  8 10 11
$  3  5  6  7 10
$  5  8  9 11
$  5  8  9 11

